instancias/entrada05.lp
Maximize
 62x1 +  49x2 + 23x3 + 52x4 + 50x5 + 65x6
Subject To
 65x1 + 12x2 + 100x3 + 59x4 + 63x5 + 96x6 <= 100
Bounds
 0 <=  x1 <= 1
 0 <=  x2 <= 1
 0 <=  x3 <= 1
 0 <=  x4 <= 1
 0 <=  x5 <= 1
 0 <=  x6 <= 1
General
 x1 x2 x3 x4 x5 x6
End