instancias/entrada05.txt
6
100
62 49 23 52 50 65
65 12 100 59 63 96